decision_x1=[0,7];
decision_x2=[0,7];
decision_x3=[0,7];
decision_x4=[0,7];
decision_x5=[0,7];
decision_x6=[0,7];
decision_x7=[0,7];
decision_x8=[0,7];
decision_x9=[0,7];
decision_x10=[0,7];
decision_x11=[0,7];
decision_x12=[0,7];
decision_x13=[0,7];
decision_x14=[0,7];
decision_x15=[0,7];
decision_x16=[0,7];
decision_x17=[0,7];
decision_x18=[0,7];
random_y1=[0,7];
random_y2=[0,7];
random_y3=[0,7];
random_y4=[0,7];
random_y5=[0,7];
random_y6=[0,7];
random_y7=[0,7];
random_y8=[0,7];
constraint_x2_x1=[
0,0,5.6|
0,1,8.9|
0,2,3.2|
0,3,1.9|
0,4,5.6|
0,5,1.8|
0,6,6.5|
0,7,4.9|
1,0,7.2|
1,1,6.2|
1,2,5.7|
1,3,9.1|
1,4,8.2|
1,5,7.6|
1,6,4.9|
1,7,6.2|
2,0,0.095|
2,1,2.9|
2,2,4.5|
2,3,1.5|
2,4,7.2|
2,5,6.5|
2,6,4.2|
2,7,3.5|
3,0,8.3|
3,1,3.2|
3,2,1.3|
3,3,7.7|
3,4,3|
3,5,0.45|
3,6,3.1|
3,7,2.4|
4,0,2.4|
4,1,4.7|
4,2,8.2|
4,3,5.2|
4,4,9.2|
4,5,4.3|
4,6,2.3|
4,7,6.3|
5,0,3|
5,1,8.9|
5,2,1.7|
5,3,9.3|
5,4,3.9|
5,5,3.5|
5,6,6|
5,7,8|
6,0,3.3|
6,1,5|
6,2,0.24|
6,3,6|
6,4,4|
6,5,3.9|
6,6,3.5|
6,7,2.8|
7,0,8.7|
7,1,2.7|
7,2,6.4|
7,3,4.3|
7,4,7.6|
7,5,0.25|
7,6,5.9|
7,7,8.4|
];
constraint_x3_x2=[
0,0,0.23|
0,1,3.2|
0,2,7.4|
0,3,7.1|
0,4,4.1|
0,5,3.4|
0,6,1.2|
0,7,7.3|
1,0,9.2|
1,1,6.4|
1,2,6.4|
1,3,0.45|
1,4,1.1|
1,5,3|
1,6,8.6|
1,7,9|
2,0,3.1|
2,1,3.6|
2,2,9.3|
2,3,2.3|
2,4,8.7|
2,5,8.7|
2,6,2.6|
2,7,5.3|
3,0,3.3|
3,1,5.1|
3,2,3.8|
3,3,8.7|
3,4,9.6|
3,5,7.8|
3,6,1.1|
3,7,1.9|
4,0,7.2|
4,1,7.9|
4,2,3|
4,3,6.6|
4,4,7.4|
4,5,7.7|
4,6,6.2|
4,7,8.1|
5,0,5.2|
5,1,6.4|
5,2,3.7|
5,3,4|
5,4,4.2|
5,5,8.4|
5,6,3.5|
5,7,3.9|
6,0,1|
6,1,9.9|
6,2,4.7|
6,3,7.5|
6,4,9.2|
6,5,8.8|
6,6,4.2|
6,7,6.4|
7,0,6.4|
7,1,8.6|
7,2,3|
7,3,0.85|
7,4,4.4|
7,5,7.3|
7,6,1.2|
7,7,8.2|
];
constraint_x4_x3=[
0,0,0.94|
0,1,2.7|
0,2,8.7|
0,3,1.1|
0,4,9.3|
0,5,5.1|
0,6,0.16|
0,7,1.5|
1,0,3.8|
1,1,5.9|
1,2,9|
1,3,1.8|
1,4,2.6|
1,5,2.3|
1,6,0.55|
1,7,6.8|
2,0,6.3|
2,1,9.3|
2,2,3.3|
2,3,10|
2,4,8.2|
2,5,5.4|
2,6,3.7|
2,7,9.2|
3,0,6.1|
3,1,4|
3,2,8.1|
3,3,2.9|
3,4,4.6|
3,5,1.6|
3,6,10|
3,7,4.4|
4,0,8.1|
4,1,6.1|
4,2,0.44|
4,3,0.71|
4,4,6.4|
4,5,4.4|
4,6,7.8|
4,7,7.7|
5,0,8.5|
5,1,9.3|
5,2,1.2|
5,3,6.2|
5,4,6.7|
5,5,2.3|
5,6,8.2|
5,7,3.4|
6,0,10|
6,1,6.5|
6,2,9|
6,3,6.2|
6,4,5.1|
6,5,9.1|
6,6,0.94|
6,7,3.3|
7,0,2.4|
7,1,8.9|
7,2,8.3|
7,3,0.83|
7,4,9.3|
7,5,3.3|
7,6,9.1|
7,7,4.8|
];
constraint_x5_x1=[
0,0,4.8|
0,1,1.9|
0,2,8.1|
0,3,6.5|
0,4,4.7|
0,5,3.5|
0,6,1|
0,7,7|
1,0,1.5|
1,1,7.5|
1,2,4|
1,3,8.5|
1,4,9.2|
1,5,6.5|
1,6,7.8|
1,7,4.8|
2,0,1.6|
2,1,2.9|
2,2,1.7|
2,3,9|
2,4,7.5|
2,5,3.6|
2,6,0.58|
2,7,9|
3,0,4.1|
3,1,9.2|
3,2,6.5|
3,3,6.7|
3,4,3.9|
3,5,6.1|
3,6,3|
3,7,3|
4,0,9.2|
4,1,6.3|
4,2,3|
4,3,2.9|
4,4,2.2|
4,5,1.1|
4,6,2.1|
4,7,3.9|
5,0,7.4|
5,1,4.3|
5,2,0.089|
5,3,3.8|
5,4,9.8|
5,5,0.23|
5,6,2.4|
5,7,2.9|
6,0,9.5|
6,1,8.4|
6,2,1.9|
6,3,7.3|
6,4,3.2|
6,5,9.3|
6,6,4.1|
6,7,7.1|
7,0,5.5|
7,1,7.8|
7,2,6.6|
7,3,2.8|
7,4,8.2|
7,5,7.9|
7,6,7.7|
7,7,4.6|
];
constraint_x6_x2=[
0,0,0.34|
0,1,8.8|
0,2,9.8|
0,3,8.4|
0,4,5.5|
0,5,0.92|
0,6,6.8|
0,7,4.5|
1,0,1|
1,1,0.61|
1,2,4.3|
1,3,0.8|
1,4,1.4|
1,5,2.9|
1,6,6.1|
1,7,9.1|
2,0,0.76|
2,1,0.92|
2,2,6|
2,3,3.8|
2,4,5.7|
2,5,0.72|
2,6,1.3|
2,7,6.8|
3,0,7.5|
3,1,3.6|
3,2,2.1|
3,3,6.3|
3,4,7.5|
3,5,1.4|
3,6,7.3|
3,7,1.8|
4,0,3.8|
4,1,5.9|
4,2,4.3|
4,3,7.5|
4,4,5.1|
4,5,2.7|
4,6,10|
4,7,3.9|
5,0,9.3|
5,1,2.1|
5,2,1.7|
5,3,6.8|
5,4,6|
5,5,5.6|
5,6,1.9|
5,7,8.5|
6,0,1.9|
6,1,6.8|
6,2,3.6|
6,3,1.3|
6,4,3.3|
6,5,7.6|
6,6,2|
6,7,2.6|
7,0,9.3|
7,1,8.6|
7,2,4|
7,3,9.1|
7,4,2.7|
7,5,9.9|
7,6,4.1|
7,7,4.4|
];
constraint_x6_x5=[
0,0,2.7|
0,1,5.1|
0,2,2.6|
0,3,1.9|
0,4,2.1|
0,5,0.55|
0,6,3.1|
0,7,7.4|
1,0,6.4|
1,1,4.2|
1,2,7.8|
1,3,7.7|
1,4,7.2|
1,5,3.2|
1,6,5.4|
1,7,9.5|
2,0,5|
2,1,6.6|
2,2,4|
2,3,2.8|
2,4,9.9|
2,5,1.4|
2,6,0.34|
2,7,2.2|
3,0,3.7|
3,1,7.6|
3,2,4.2|
3,3,9|
3,4,5.8|
3,5,6.8|
3,6,4.7|
3,7,9.3|
4,0,4.6|
4,1,1.2|
4,2,3.1|
4,3,3.1|
4,4,7.4|
4,5,4.9|
4,6,8.8|
4,7,3|
5,0,1.4|
5,1,6|
5,2,9.7|
5,3,5.6|
5,4,0.41|
5,5,8.4|
5,6,8.2|
5,7,1.9|
6,0,0.34|
6,1,4.1|
6,2,9.7|
6,3,4.6|
6,4,5.8|
6,5,9.1|
6,6,4.6|
6,7,1.5|
7,0,4.8|
7,1,0.84|
7,2,2.5|
7,3,6.5|
7,4,5.7|
7,5,5|
7,6,5.9|
7,7,5.5|
];
constraint_x7_x3=[
0,0,7.5|
0,1,1.6|
0,2,3.6|
0,3,5.9|
0,4,4.7|
0,5,9.1|
0,6,2.8|
0,7,1.4|
1,0,3.3|
1,1,5.3|
1,2,8.7|
1,3,3.6|
1,4,7|
1,5,0.078|
1,6,3|
1,7,5.1|
2,0,3.2|
2,1,2.9|
2,2,3.2|
2,3,0.0063|
2,4,2.8|
2,5,3.9|
2,6,5.1|
2,7,9.2|
3,0,2.1|
3,1,1.5|
3,2,3.6|
3,3,8.9|
3,4,5|
3,5,3.7|
3,6,3.9|
3,7,0.79|
4,0,8.4|
4,1,0.54|
4,2,6.7|
4,3,9.4|
4,4,1.4|
4,5,7.7|
4,6,1.7|
4,7,6.2|
5,0,4.9|
5,1,3.8|
5,2,3.4|
5,3,7.1|
5,4,0.68|
5,5,2.7|
5,6,0.25|
5,7,3.1|
6,0,9.4|
6,1,5.1|
6,2,9|
6,3,0.79|
6,4,6.2|
6,5,3.5|
6,6,3|
6,7,2|
7,0,3.7|
7,1,6.8|
7,2,1.4|
7,3,1.6|
7,4,0.97|
7,5,4.3|
7,6,0.47|
7,7,3.7|
];
constraint_x7_x6=[
0,0,1|
0,1,3|
0,2,7.1|
0,3,5.5|
0,4,9.6|
0,5,3.1|
0,6,4.9|
0,7,9|
1,0,8.1|
1,1,4.5|
1,2,4.9|
1,3,1.4|
1,4,3.9|
1,5,0.63|
1,6,1.2|
1,7,6.7|
2,0,8.6|
2,1,6.6|
2,2,4.2|
2,3,1.7|
2,4,6|
2,5,5.6|
2,6,4.2|
2,7,8.7|
3,0,2.8|
3,1,4|
3,2,5.2|
3,3,7.6|
3,4,4.2|
3,5,1.8|
3,6,1.3|
3,7,0.79|
4,0,8.2|
4,1,5.2|
4,2,5.9|
4,3,6.7|
4,4,4.6|
4,5,1.2|
4,6,3.1|
4,7,2.5|
5,0,5.7|
5,1,7.2|
5,2,8.7|
5,3,6|
5,4,2.5|
5,5,1.7|
5,6,3.2|
5,7,1.9|
6,0,9.8|
6,1,1.8|
6,2,1.1|
6,3,6|
6,4,3.5|
6,5,6.8|
6,6,7.5|
6,7,4.6|
7,0,5.3|
7,1,3.8|
7,2,9.4|
7,3,4.2|
7,4,3.7|
7,5,0.87|
7,6,7.2|
7,7,0.2|
];
constraint_x8_x4=[
0,0,4.4|
0,1,1.2|
0,2,0.82|
0,3,7.9|
0,4,5.1|
0,5,8.1|
0,6,4.3|
0,7,9.4|
1,0,6.4|
1,1,3.2|
1,2,7.6|
1,3,0.55|
1,4,8.8|
1,5,9.8|
1,6,0.57|
1,7,2|
2,0,0.62|
2,1,1.5|
2,2,3.6|
2,3,8.1|
2,4,2.2|
2,5,3.2|
2,6,5.9|
2,7,0.3|
3,0,0.47|
3,1,0.49|
3,2,2.9|
3,3,9.2|
3,4,0.84|
3,5,2.7|
3,6,0.31|
3,7,2.8|
4,0,0.54|
4,1,4.8|
4,2,5.9|
4,3,6.9|
4,4,0.074|
4,5,5|
4,6,6.2|
4,7,2.7|
5,0,2.8|
5,1,6.8|
5,2,1.8|
5,3,4.4|
5,4,9.6|
5,5,2.3|
5,6,7.7|
5,7,7.9|
6,0,8.7|
6,1,4.7|
6,2,0.51|
6,3,8.6|
6,4,3.1|
6,5,4.9|
6,6,6.6|
6,7,6.6|
7,0,6.3|
7,1,6.1|
7,2,9.9|
7,3,2.2|
7,4,2.2|
7,5,0.94|
7,6,3.5|
7,7,3.1|
];
constraint_x8_x7=[
0,0,6.8|
0,1,9.2|
0,2,3.4|
0,3,3.3|
0,4,4.7|
0,5,1.5|
0,6,4|
0,7,6.3|
1,0,8.5|
1,1,0.74|
1,2,2.1|
1,3,0.7|
1,4,0.39|
1,5,6.1|
1,6,6.9|
1,7,1.3|
2,0,7.5|
2,1,0.86|
2,2,2|
2,3,7|
2,4,4.9|
2,5,9.1|
2,6,0.45|
2,7,2.1|
3,0,1.2|
3,1,4.4|
3,2,6.8|
3,3,0.76|
3,4,8|
3,5,0.87|
3,6,1.4|
3,7,0.44|
4,0,2.9|
4,1,3|
4,2,8.1|
4,3,0.69|
4,4,8.5|
4,5,6.3|
4,6,8.2|
4,7,3.1|
5,0,1.9|
5,1,9.7|
5,2,5.4|
5,3,8.1|
5,4,9.9|
5,5,2.1|
5,6,4.3|
5,7,1.8|
6,0,1.6|
6,1,3.5|
6,2,9.2|
6,3,7.9|
6,4,3.1|
6,5,4.9|
6,6,5.6|
6,7,0.25|
7,0,0.95|
7,1,5.9|
7,2,8.3|
7,3,5.7|
7,4,4|
7,5,8|
7,6,7.9|
7,7,8.5|
];
constraint_x9_x5=[
0,0,0.57|
0,1,8|
0,2,4.5|
0,3,1.6|
0,4,9.5|
0,5,0.15|
0,6,7.3|
0,7,4.9|
1,0,5.1|
1,1,8.4|
1,2,3.9|
1,3,2.8|
1,4,8.7|
1,5,6.2|
1,6,6.9|
1,7,4.3|
2,0,7.1|
2,1,9.2|
2,2,6.9|
2,3,6.2|
2,4,3.4|
2,5,3.6|
2,6,4.8|
2,7,8.7|
3,0,6.1|
3,1,5.9|
3,2,3.6|
3,3,6.4|
3,4,7.3|
3,5,1.2|
3,6,4.4|
3,7,0.39|
4,0,1.4|
4,1,9.4|
4,2,6.7|
4,3,8.2|
4,4,6.1|
4,5,6.1|
4,6,6.2|
4,7,1.9|
5,0,7.6|
5,1,4.5|
5,2,6.1|
5,3,8.2|
5,4,9.9|
5,5,7.6|
5,6,2.2|
5,7,3.3|
6,0,9.8|
6,1,0.82|
6,2,8.1|
6,3,6.6|
6,4,3.2|
6,5,1.6|
6,6,5.1|
6,7,9.8|
7,0,8.9|
7,1,5.7|
7,2,2.8|
7,3,9.8|
7,4,7.7|
7,5,0.51|
7,6,1.3|
7,7,7.3|
];
constraint_x10_x6=[
0,0,7.2|
0,1,3.4|
0,2,7.7|
0,3,4.7|
0,4,3.8|
0,5,2|
0,6,8.5|
0,7,7.2|
1,0,9.8|
1,1,8.5|
1,2,9.4|
1,3,3.3|
1,4,4.3|
1,5,1.2|
1,6,5.7|
1,7,2.9|
2,0,8.2|
2,1,8.3|
2,2,2.5|
2,3,1.6|
2,4,7.5|
2,5,3|
2,6,7.5|
2,7,8.3|
3,0,2.1|
3,1,7.7|
3,2,5.1|
3,3,0.04|
3,4,9.2|
3,5,7.4|
3,6,6.5|
3,7,0.68|
4,0,5.6|
4,1,6.7|
4,2,8.3|
4,3,9.1|
4,4,9.7|
4,5,4.6|
4,6,6.9|
4,7,2.9|
5,0,4.2|
5,1,2.1|
5,2,9.4|
5,3,9.8|
5,4,4.5|
5,5,0.13|
5,6,4.4|
5,7,8.2|
6,0,4.4|
6,1,3|
6,2,8.8|
6,3,3.8|
6,4,0.65|
6,5,5.9|
6,6,7.2|
6,7,9|
7,0,9.7|
7,1,1.7|
7,2,9.6|
7,3,6|
7,4,0.94|
7,5,3.4|
7,6,9.5|
7,7,0.55|
];
constraint_x11_x7=[
0,0,9|
0,1,7.3|
0,2,7.7|
0,3,5.9|
0,4,2.2|
0,5,6.4|
0,6,6.9|
0,7,3.7|
1,0,2.5|
1,1,0.084|
1,2,3.7|
1,3,6.3|
1,4,8|
1,5,9.7|
1,6,3.6|
1,7,1.9|
2,0,1.3|
2,1,2.7|
2,2,4.5|
2,3,1.6|
2,4,4.5|
2,5,2.7|
2,6,7.3|
2,7,3.4|
3,0,7.4|
3,1,6|
3,2,1.2|
3,3,8|
3,4,9.2|
3,5,4.3|
3,6,6|
3,7,6.3|
4,0,9.9|
4,1,9.1|
4,2,5.3|
4,3,5.6|
4,4,2.2|
4,5,2.7|
4,6,1.7|
4,7,0.91|
5,0,9.2|
5,1,5.8|
5,2,5.3|
5,3,9.8|
5,4,7.9|
5,5,3.3|
5,6,2.4|
5,7,4|
6,0,5.1|
6,1,0.17|
6,2,6.3|
6,3,0.83|
6,4,7.6|
6,5,8.8|
6,6,6|
6,7,0.7|
7,0,5.3|
7,1,7.9|
7,2,7|
7,3,8.1|
7,4,2.7|
7,5,5.5|
7,6,9.4|
7,7,6.2|
];
constraint_x12_x8=[
0,0,3.9|
0,1,3.2|
0,2,7.3|
0,3,5.1|
0,4,6.7|
0,5,2.8|
0,6,9.2|
0,7,3.7|
1,0,9.3|
1,1,5.7|
1,2,1.1|
1,3,6.4|
1,4,6|
1,5,2.6|
1,6,8.6|
1,7,3.9|
2,0,4.9|
2,1,6.4|
2,2,6.4|
2,3,6.2|
2,4,3.3|
2,5,9.8|
2,6,3.6|
2,7,5.2|
3,0,9.6|
3,1,9.1|
3,2,9|
3,3,2.5|
3,4,0.55|
3,5,2|
3,6,2.7|
3,7,0.4|
4,0,5.8|
4,1,8.4|
4,2,5.7|
4,3,6.6|
4,4,0.65|
4,5,6.7|
4,6,9.2|
4,7,0.26|
5,0,7.7|
5,1,3.9|
5,2,9.8|
5,3,8.3|
5,4,0.59|
5,5,5.7|
5,6,5.1|
5,7,5.6|
6,0,1.6|
6,1,6.6|
6,2,2|
6,3,4.5|
6,4,6.3|
6,5,1.5|
6,6,8.9|
6,7,7.7|
7,0,4.7|
7,1,9.3|
7,2,1.4|
7,3,2.6|
7,4,7.6|
7,5,0.25|
7,6,2.5|
7,7,4.7|
];
constraint_x13_x9=[
0,0,1.4|
0,1,4.9|
0,2,8.5|
0,3,5.7|
0,4,4.9|
0,5,6.6|
0,6,5.6|
0,7,7|
1,0,4.8|
1,1,0.54|
1,2,8.7|
1,3,4.3|
1,4,5.8|
1,5,2.7|
1,6,6|
1,7,5.3|
2,0,4.6|
2,1,7.8|
2,2,0.38|
2,3,0.6|
2,4,8.1|
2,5,7.7|
2,6,2.9|
2,7,4.4|
3,0,2.5|
3,1,8.2|
3,2,5.2|
3,3,5.3|
3,4,6.1|
3,5,9.3|
3,6,9|
3,7,5.8|
4,0,3.5|
4,1,5.1|
4,2,6.3|
4,3,0.32|
4,4,2.7|
4,5,9.8|
4,6,5.5|
4,7,5.6|
5,0,8|
5,1,2.4|
5,2,7.6|
5,3,2.4|
5,4,1.2|
5,5,6.3|
5,6,6|
5,7,9.5|
6,0,4.8|
6,1,8|
6,2,1.1|
6,3,4.9|
6,4,7|
6,5,9.4|
6,6,5.3|
6,7,2.7|
7,0,8.7|
7,1,7.8|
7,2,9.7|
7,3,8.9|
7,4,0.24|
7,5,8.4|
7,6,8|
7,7,3.6|
];
constraint_x14_x10=[
0,0,9.5|
0,1,7.1|
0,2,1.7|
0,3,8.7|
0,4,4.3|
0,5,0.39|
0,6,8.9|
0,7,1.5|
1,0,4.1|
1,1,5.5|
1,2,3.6|
1,3,2.5|
1,4,2.3|
1,5,6.1|
1,6,7.3|
1,7,3.7|
2,0,4.1|
2,1,2.3|
2,2,0.014|
2,3,9.2|
2,4,9.5|
2,5,7.6|
2,6,0.28|
2,7,2.6|
3,0,7.3|
3,1,6.7|
3,2,3.4|
3,3,2.1|
3,4,5.2|
3,5,7.1|
3,6,7.4|
3,7,5.7|
4,0,3.8|
4,1,0.23|
4,2,8.8|
4,3,4.8|
4,4,1.1|
4,5,3.8|
4,6,5.3|
4,7,3.8|
5,0,4.7|
5,1,2.6|
5,2,0.6|
5,3,9.6|
5,4,8.5|
5,5,8|
5,6,3.6|
5,7,8|
6,0,5|
6,1,9.4|
6,2,0.067|
6,3,3.6|
6,4,1.2|
6,5,1.2|
6,6,0.32|
6,7,3.4|
7,0,6.1|
7,1,3|
7,2,8.5|
7,3,5.4|
7,4,9.9|
7,5,5.7|
7,6,3|
7,7,9.4|
];
constraint_x15_x11=[
0,0,2.1|
0,1,1.2|
0,2,2.9|
0,3,9.9|
0,4,10|
0,5,6.9|
0,6,1|
0,7,5.2|
1,0,9.4|
1,1,8.5|
1,2,7.7|
1,3,5.2|
1,4,2.6|
1,5,2|
1,6,0.7|
1,7,5.4|
2,0,1.1|
2,1,8.1|
2,2,2|
2,3,2.5|
2,4,7.3|
2,5,1.5|
2,6,7.4|
2,7,8.5|
3,0,3.7|
3,1,3.7|
3,2,9.5|
3,3,6.2|
3,4,7.9|
3,5,3.5|
3,6,9.5|
3,7,5.4|
4,0,1.2|
4,1,1.1|
4,2,4.7|
4,3,7.5|
4,4,0.26|
4,5,7.2|
4,6,1.7|
4,7,3.8|
5,0,8|
5,1,1.9|
5,2,5.6|
5,3,8.9|
5,4,0.099|
5,5,0.39|
5,6,1.7|
5,7,7.6|
6,0,4.4|
6,1,3.1|
6,2,9.4|
6,3,3.2|
6,4,2|
6,5,4.1|
6,6,8.1|
6,7,0.97|
7,0,7.6|
7,1,1.5|
7,2,9.5|
7,3,2.3|
7,4,6.8|
7,5,2.7|
7,6,5.6|
7,7,2.2|
];
constraint_x16_x12=[
0,0,0.054|
0,1,3.1|
0,2,8.3|
0,3,7.8|
0,4,6.8|
0,5,0.55|
0,6,5.6|
0,7,8.6|
1,0,3.3|
1,1,3.8|
1,2,8.6|
1,3,8.4|
1,4,7.4|
1,5,7.3|
1,6,7.6|
1,7,0.2|
2,0,9.1|
2,1,9.8|
2,2,4.4|
2,3,6.3|
2,4,3.4|
2,5,9.1|
2,6,3.6|
2,7,2.3|
3,0,9.8|
3,1,1.2|
3,2,1.1|
3,3,2.7|
3,4,8.2|
3,5,2.5|
3,6,2.8|
3,7,8.8|
4,0,7.3|
4,1,6|
4,2,4.5|
4,3,4.3|
4,4,9|
4,5,5.7|
4,6,2.4|
4,7,1.6|
5,0,6.7|
5,1,3.7|
5,2,3.2|
5,3,4.6|
5,4,4.7|
5,5,8.8|
5,6,2.8|
5,7,2.7|
6,0,7.7|
6,1,9.4|
6,2,2.6|
6,3,8.1|
6,4,7.6|
6,5,8.3|
6,6,1.5|
6,7,2|
7,0,8.4|
7,1,9.1|
7,2,1|
7,3,5.5|
7,4,2.9|
7,5,5.1|
7,6,0.31|
7,7,7.3|
];
constraint_x17_x13=[
0,0,8.2|
0,1,0.98|
0,2,5|
0,3,0.089|
0,4,3.9|
0,5,7.9|
0,6,7.4|
0,7,2|
1,0,2.7|
1,1,7.4|
1,2,5.7|
1,3,8.8|
1,4,8.9|
1,5,3.6|
1,6,0.82|
1,7,3|
2,0,4.6|
2,1,2.8|
2,2,3.2|
2,3,5|
2,4,4.2|
2,5,5.3|
2,6,8.4|
2,7,5.2|
3,0,3.6|
3,1,5.6|
3,2,8.1|
3,3,0.68|
3,4,7|
3,5,3.5|
3,6,6.2|
3,7,2.5|
4,0,6.3|
4,1,9.5|
4,2,5|
4,3,5.2|
4,4,6.9|
4,5,9.6|
4,6,7.1|
4,7,2|
5,0,0.72|
5,1,1.5|
5,2,1.1|
5,3,7.9|
5,4,9.8|
5,5,7.7|
5,6,8.6|
5,7,1.5|
6,0,3.2|
6,1,0.23|
6,2,6.3|
6,3,7.3|
6,4,2.8|
6,5,9|
6,6,0.81|
6,7,9.8|
7,0,1.3|
7,1,6.6|
7,2,1.3|
7,3,6.8|
7,4,8.6|
7,5,2.8|
7,6,1.5|
7,7,4.2|
];
constraint_x18_x14=[
0,0,7.3|
0,1,6.8|
0,2,8.8|
0,3,5.5|
0,4,1.8|
0,5,8.7|
0,6,2.1|
0,7,0.82|
1,0,0.72|
1,1,2|
1,2,2.9|
1,3,3|
1,4,5.7|
1,5,9.7|
1,6,1.8|
1,7,5.4|
2,0,2.2|
2,1,9.2|
2,2,6.2|
2,3,3.3|
2,4,5.6|
2,5,0.53|
2,6,1.9|
2,7,1|
3,0,5.5|
3,1,3.7|
3,2,0.54|
3,3,2.6|
3,4,7|
3,5,8.3|
3,6,5.1|
3,7,3.2|
4,0,2.4|
4,1,1.4|
4,2,2.3|
4,3,1.2|
4,4,5.2|
4,5,5.6|
4,6,4.3|
4,7,7.2|
5,0,1.7|
5,1,0.26|
5,2,4.7|
5,3,0.54|
5,4,5.7|
5,5,3.4|
5,6,1|
5,7,2|
6,0,3.5|
6,1,0.37|
6,2,5.8|
6,3,9.7|
6,4,7.7|
6,5,5|
6,6,3.8|
6,7,1.5|
7,0,6.8|
7,1,6.6|
7,2,8.7|
7,3,3.2|
7,4,0.082|
7,5,9.8|
7,6,7.6|
7,7,3.6|
];
constraint_x1_y1=[
0,0,3.7|
0,1,0.28|
0,2,3.7|
0,3,7.3|
0,4,6.3|
0,5,2.2|
0,6,9|
0,7,8.8|
1,0,9.1|
1,1,3.4|
1,2,6.6|
1,3,7.1|
1,4,3|
1,5,2.6|
1,6,9.5|
1,7,9.4|
2,0,8|
2,1,3|
2,2,4|
2,3,9.5|
2,4,7.2|
2,5,3.9|
2,6,3|
2,7,4.2|
3,0,5.5|
3,1,5.6|
3,2,6|
3,3,5.7|
3,4,4.6|
3,5,0.91|
3,6,0.58|
3,7,0.33|
4,0,8.7|
4,1,8.8|
4,2,0.8|
4,3,7.5|
4,4,3.1|
4,5,1.4|
4,6,8.1|
4,7,3|
5,0,0.99|
5,1,0.66|
5,2,0.73|
5,3,0.93|
5,4,6.2|
5,5,5.3|
5,6,0.95|
5,7,1.5|
6,0,9.4|
6,1,5.8|
6,2,3.6|
6,3,9.6|
6,4,5|
6,5,2.6|
6,6,8.5|
6,7,2.6|
7,0,1.7|
7,1,2.3|
7,2,6.1|
7,3,2.8|
7,4,6.9|
7,5,4.6|
7,6,9.7|
7,7,2.7|
];
constraint_x2_y2=[
0,0,3.1|
0,1,5.3|
0,2,5|
0,3,8.8|
0,4,7.2|
0,5,0.94|
0,6,0.61|
0,7,4.6|
1,0,9.5|
1,1,8.7|
1,2,9.4|
1,3,6.7|
1,4,3.4|
1,5,5.7|
1,6,7.7|
1,7,9|
2,0,8.3|
2,1,6.4|
2,2,7.6|
2,3,3.3|
2,4,5.8|
2,5,9.1|
2,6,9.7|
2,7,9.8|
3,0,5.4|
3,1,2|
3,2,2.3|
3,3,8.1|
3,4,1.8|
3,5,0.95|
3,6,9.9|
3,7,0.14|
4,0,2.7|
4,1,6.3|
4,2,4.4|
4,3,2.1|
4,4,3.7|
4,5,7|
4,6,1.8|
4,7,3.3|
5,0,3.2|
5,1,3.9|
5,2,0.99|
5,3,3.6|
5,4,4.6|
5,5,0.33|
5,6,4.6|
5,7,6.3|
6,0,4.4|
6,1,3.3|
6,2,9|
6,3,1.2|
6,4,2.5|
6,5,3.1|
6,6,0.44|
6,7,4.6|
7,0,0.082|
7,1,9.6|
7,2,9.8|
7,3,3.4|
7,4,5.5|
7,5,0.53|
7,6,4.6|
7,7,9.6|
];
constraint_x3_y3=[
0,0,2.6|
0,1,6.5|
0,2,6.1|
0,3,1.6|
0,4,2.8|
0,5,0.74|
0,6,4|
0,7,8.4|
1,0,1.6|
1,1,4.1|
1,2,3.3|
1,3,0.7|
1,4,9.2|
1,5,6.5|
1,6,3.5|
1,7,2.4|
2,0,0.18|
2,1,1.7|
2,2,9.9|
2,3,5.5|
2,4,0.9|
2,5,4.3|
2,6,3.5|
2,7,7.1|
3,0,2.6|
3,1,9.7|
3,2,7|
3,3,0.26|
3,4,5.1|
3,5,5|
3,6,4.5|
3,7,0.58|
4,0,4.3|
4,1,9.2|
4,2,9.4|
4,3,0.089|
4,4,0.18|
4,5,0.71|
4,6,9.3|
4,7,4.7|
5,0,9.1|
5,1,4.7|
5,2,5.8|
5,3,0.34|
5,4,1.7|
5,5,5.7|
5,6,5.8|
5,7,4.8|
6,0,9.1|
6,1,2.8|
6,2,4.7|
6,3,2.8|
6,4,4.6|
6,5,7.9|
6,6,6.8|
6,7,7.7|
7,0,5.5|
7,1,2.2|
7,2,1.6|
7,3,0.42|
7,4,2.4|
7,5,4.4|
7,6,5.7|
7,7,0.24|
];
constraint_x4_y4=[
0,0,9.8|
0,1,4.5|
0,2,8.6|
0,3,7.7|
0,4,2.6|
0,5,9.1|
0,6,9.3|
0,7,9.1|
1,0,5.7|
1,1,1.4|
1,2,9.4|
1,3,4.7|
1,4,5.3|
1,5,9.4|
1,6,4.8|
1,7,9.1|
2,0,6.3|
2,1,3.7|
2,2,4.3|
2,3,9.8|
2,4,5.5|
2,5,6.9|
2,6,1.4|
2,7,8.5|
3,0,7|
3,1,2.8|
3,2,4.1|
3,3,4.5|
3,4,7.6|
3,5,7.1|
3,6,9.4|
3,7,9.1|
4,0,7.7|
4,1,1.9|
4,2,7.8|
4,3,4.2|
4,4,6.4|
4,5,2.2|
4,6,9.3|
4,7,4.2|
5,0,0.2|
5,1,2.6|
5,2,4.8|
5,3,6.1|
5,4,5.7|
5,5,0.42|
5,6,8.7|
5,7,4.9|
6,0,3.5|
6,1,4.9|
6,2,8.5|
6,3,6.8|
6,4,4.2|
6,5,6.2|
6,6,8.7|
6,7,1.6|
7,0,6.6|
7,1,8.5|
7,2,0.65|
7,3,2.9|
7,4,3.5|
7,5,7.8|
7,6,2.2|
7,7,5.1|
];
constraint_x5_y5=[
0,0,8.2|
0,1,1.6|
0,2,1.6|
0,3,8.7|
0,4,2.4|
0,5,5.2|
0,6,4.1|
0,7,0.084|
1,0,8.4|
1,1,6.3|
1,2,9.4|
1,3,1.9|
1,4,9.9|
1,5,7.8|
1,6,2.8|
1,7,3|
2,0,2.5|
2,1,8.5|
2,2,7.5|
2,3,5.7|
2,4,1.7|
2,5,7.4|
2,6,2.6|
2,7,6.3|
3,0,8.5|
3,1,6.8|
3,2,8.5|
3,3,6.6|
3,4,1.6|
3,5,5.7|
3,6,4.6|
3,7,1.9|
4,0,8.8|
4,1,8.4|
4,2,5.8|
4,3,4.6|
4,4,2.9|
4,5,5.2|
4,6,1.8|
4,7,6.7|
5,0,9.7|
5,1,6.4|
5,2,6.1|
5,3,9.4|
5,4,9.8|
5,5,1.7|
5,6,7.6|
5,7,7.9|
6,0,4.9|
6,1,7.2|
6,2,0.75|
6,3,0.31|
6,4,8.3|
6,5,9.4|
6,6,5.2|
6,7,2.5|
7,0,2.5|
7,1,4.4|
7,2,2.4|
7,3,3.1|
7,4,1.4|
7,5,2.6|
7,6,7.6|
7,7,4.1|
];
constraint_x6_y6=[
0,0,6.5|
0,1,2|
0,2,1.7|
0,3,5.9|
0,4,7.7|
0,5,3.6|
0,6,4.4|
0,7,6.5|
1,0,0.73|
1,1,9.7|
1,2,4.8|
1,3,7.4|
1,4,2.6|
1,5,0.67|
1,6,1.9|
1,7,5.3|
2,0,8.8|
2,1,7.8|
2,2,6.8|
2,3,4.4|
2,4,1.9|
2,5,6|
2,6,1.1|
2,7,0.15|
3,0,3.6|
3,1,6.2|
3,2,8.7|
3,3,0.85|
3,4,8.8|
3,5,0.21|
3,6,7.1|
3,7,7.3|
4,0,9.3|
4,1,9.5|
4,2,4.5|
4,3,0.29|
4,4,5|
4,5,8|
4,6,8.3|
4,7,6.3|
5,0,4.4|
5,1,0.11|
5,2,6|
5,3,3|
5,4,9.2|
5,5,2.5|
5,6,8|
5,7,4.7|
6,0,4.2|
6,1,6.6|
6,2,6.3|
6,3,3.4|
6,4,5.8|
6,5,8.2|
6,6,4.6|
6,7,9.5|
7,0,2.3|
7,1,0.41|
7,2,5|
7,3,7.6|
7,4,0.18|
7,5,7.5|
7,6,8.4|
7,7,7.3|
];
constraint_x7_y7=[
0,0,4.2|
0,1,6.5|
0,2,7|
0,3,5.9|
0,4,8.5|
0,5,7.4|
0,6,1.1|
0,7,6.6|
1,0,5.6|
1,1,9.1|
1,2,7.5|
1,3,0.076|
1,4,7.2|
1,5,5|
1,6,1.5|
1,7,7.1|
2,0,6.1|
2,1,8.7|
2,2,8.8|
2,3,5.3|
2,4,9.6|
2,5,8.2|
2,6,1.4|
2,7,4.1|
3,0,8.5|
3,1,7.1|
3,2,5.1|
3,3,9|
3,4,3.8|
3,5,1.5|
3,6,4.4|
3,7,0.4|
4,0,7.2|
4,1,9.7|
4,2,6.3|
4,3,8.7|
4,4,6.7|
4,5,2.4|
4,6,6.7|
4,7,3.2|
5,0,0.29|
5,1,6.4|
5,2,7.4|
5,3,0.45|
5,4,1.8|
5,5,9.2|
5,6,5.4|
5,7,3.2|
6,0,7|
6,1,9.6|
6,2,6.2|
6,3,3.2|
6,4,4|
6,5,0.61|
6,6,3.9|
6,7,3.4|
7,0,4.1|
7,1,9|
7,2,9|
7,3,4.4|
7,4,0.51|
7,5,1.4|
7,6,8.9|
7,7,7.2|
];
constraint_x8_y8=[
0,0,8.2|
0,1,3.6|
0,2,6.1|
0,3,3.5|
0,4,8.6|
0,5,8.2|
0,6,1.5|
0,7,3.3|
1,0,2|
1,1,5.1|
1,2,4.3|
1,3,9.6|
1,4,2.3|
1,5,3.9|
1,6,9.3|
1,7,0.15|
2,0,3.3|
2,1,5|
2,2,4.4|
2,3,1.5|
2,4,0.15|
2,5,5.3|
2,6,3.5|
2,7,7.2|
3,0,7.6|
3,1,8.7|
3,2,5.1|
3,3,3.2|
3,4,9.7|
3,5,3.5|
3,6,1|
3,7,1.5|
4,0,7|
4,1,6.6|
4,2,8|
4,3,3.7|
4,4,8.4|
4,5,1.8|
4,6,6.8|
4,7,1.6|
5,0,3.1|
5,1,8.2|
5,2,3.2|
5,3,7.2|
5,4,4.6|
5,5,1.1|
5,6,7.1|
5,7,7|
6,0,6.6|
6,1,0.2|
6,2,2.2|
6,3,9.6|
6,4,3.1|
6,5,10|
6,6,4.3|
6,7,4.1|
7,0,7.5|
7,1,5.5|
7,2,0.55|
7,3,6.2|
7,4,0.042|
7,5,6.7|
7,6,3|
7,7,9.8|
];
initial_distribution_y1=[0.24,0.19,0.063,0.011,0.17,0.11,0.15,0.063];
initial_distribution_y2=[0.1,0.16,0.17,0.13,0.073,0.15,0.09,0.12];
initial_distribution_y3=[0.071,0.24,0.027,0.14,0.071,0.13,0.2,0.13];
initial_distribution_y4=[0.15,0.14,0.15,0.0094,0.14,0.17,0.068,0.17];
initial_distribution_y5=[0.19,0.18,0.017,0.17,0.17,0.15,0.086,0.029];
initial_distribution_y6=[0.14,0.18,0.026,0.18,0.12,0.17,0.064,0.12];
initial_distribution_y7=[0.035,0.32,0.2,0.048,0.035,0.16,0.11,0.093];
initial_distribution_y8=[0.1,0.047,0.16,0.046,0.15,0.24,0.12,0.13];
transition_y1=[
0.21,0.17,0.014,0.1,0.11,0.21,0.13,0.063|
0.19,0.13,0.11,0.057,0.01,0.14,0.17,0.2|
0.068,0.054,0.073,0.22,0.029,0.16,0.18,0.22|
0.19,0.06,0.17,0.11,0.092,0.092,0.095,0.19|
0.019,0.2,0.2,0.18,0.11,0.086,0.16,0.047|
0.17,0.047,0.076,0.15,0.11,0.13,0.17,0.14|
0.081,0.14,0.16,0.1,0.13,0.21,0.13,0.039|
0.021,0.064,0.21,0.081,0.048,0.24,0.2,0.14|
];
transition_y2=[
0.17,0.014,0.15,0.18,0.023,0.16,0.089,0.22|
0.13,0.26,0.032,0.038,0.26,0.094,0.0067,0.18|
0.048,0.2,0.083,0.19,0.15,0.05,0.19,0.086|
0.21,0.22,0.12,0.039,0.078,0.019,0.27,0.035|
0.01,0.13,0.16,0.16,0.16,0.084,0.26,0.036|
0.11,0.1,0.15,0.11,0.1,0.14,0.17,0.12|
0.12,0.098,0.17,0.12,0.011,0.15,0.19,0.15|
0.14,0.11,0.12,0.14,0.14,0.062,0.14,0.13|
];
transition_y3=[
0.19,0.044,0.044,0.013,0.13,0.18,0.2,0.21|
0.18,0.095,0.2,0.12,0.11,0.094,0.21,0.0042|
0.2,0.21,0.041,0.1,0.19,0.18,0.044,0.049|
0.034,0.037,0.081,0.1,0.32,0.33,0.056,0.04|
0.28,0.096,0.11,0.04,0.29,0.066,0.11,0.012|
0.2,0.19,0.017,0.13,0.14,0.042,0.11,0.18|
0.22,0.21,0.24,0.095,0.0069,0.17,0.035,0.035|
0.19,0.16,0.098,0.09,0.091,0.14,0.2,0.034|
];
transition_y4=[
0.21,0.2,0.25,0.048,0.054,0.069,0.062,0.11|
0.044,0.11,0.25,0.064,0.11,0.23,0.048,0.14|
0.046,0.16,0.11,0.09,0.15,0.13,0.15,0.16|
0.19,0.2,0.28,0.073,0.016,0.13,0.068,0.042|
0.11,0.14,0.066,0.065,0.17,0.16,0.0033,0.28|
0.24,0.0044,0.11,0.21,0.093,0.21,0.11,0.029|
0.069,0.17,0.037,0.2,0.1,0.13,0.12,0.18|
0.19,0.14,0.2,0.056,0.1,0.13,0.16,0.029|
];
transition_y5=[
0.036,0.17,0.032,0.4,0.065,0.094,0.099,0.1|
0.25,0.13,0.039,0.03,0.11,0.021,0.12,0.3|
0.067,0.065,0.16,0.12,0.23,0.091,0.24,0.033|
0.084,0.21,0.24,0.096,0.083,0.17,0.11,0.018|
0.25,0.1,0.17,0.044,0.052,0.067,0.056,0.26|
0.033,0.081,0.31,0.19,0.033,0.02,0.022,0.31|
0.039,0.08,0.061,0.11,0.24,0.26,0.083,0.13|
0.16,0.21,0.14,0.088,0.07,0.1,0.18,0.053|
];
transition_y6=[
0.054,0.022,0.2,0.13,0.094,0.25,0.098,0.15|
0.048,0.29,0.14,0.048,0.17,0.088,0.014,0.19|
0.15,0.12,0.019,0.12,0.16,0.15,0.13,0.15|
0.14,0.21,0.012,0.24,0.23,0.042,0.064,0.066|
0.15,0.061,0.19,0.074,0.17,0.16,0.085,0.11|
0.059,0.21,0.045,0.15,0.12,0.16,0.21,0.047|
0.089,0.072,0.13,0.061,0.11,0.24,0.031,0.26|
0.18,0.089,0.23,0.11,0.073,0.032,0.25,0.04|
];
transition_y7=[
0.097,0.079,0.16,0.18,0.11,0.16,0.18,0.042|
0.069,0.1,0.14,0.12,0.28,0.022,0.088,0.17|
0.18,0.13,0.031,0.2,0.1,0.12,0.005,0.23|
0.17,0.12,0.18,0.13,0.18,0.037,0.047,0.14|
0.12,0.16,0.03,0.06,0.074,0.2,0.14,0.21|
0.11,0.19,0.059,0.11,0.19,0.084,0.2,0.055|
0.12,0.1,0.18,0.19,0.14,0.032,0.23,0.013|
0.21,0.13,0.034,0.08,0.082,0.03,0.21,0.22|
];
transition_y8=[
0.11,0.06,0.077,0.13,0.15,0.22,0.17,0.079|
0.13,0.15,0.16,0.022,0.19,0.044,0.11,0.19|
0.16,0.17,0.0076,0.16,0.014,0.12,0.17,0.2|
0.12,0.049,0.16,0.16,0.11,0.15,0.17,0.073|
0.0082,0.15,0.073,0.19,0.23,0.017,0.2,0.14|
0.083,0.18,0.14,0.15,0.049,0.12,0.18,0.088|
0.046,0.17,0.11,0.16,0.19,0.13,0.088,0.099|
0.27,0.18,0.12,0.0032,0.12,0.089,0.059,0.16|
];
